peakDumbCharging = 22200; 
Machine = anon_enum(16); 
machineSpeed = [3700,3700,3700,3700,3700,3700,3700,3700,3700,3700,3700,3700,3700,3700,3700,3700]; 
machineLoad = [3700,3700,3700,3700,3700,3700,3700,3700,3700,3700,3700,3700,3700,3700,3700,3700]; 
Car = anon_enum(26); 
demandCar = [760,7480,3240,6680,22280,40000,80,3120,13080,6640,25280,4000,10240,7400,21680,9600,7320,3920,23160,3640,6640,22760,4640,3240,1560,17080]; 
arrivalCar = [76,75,75,71,70,66,66,66,66,64,62,59,58,57,56,56,55,52,51,50,48,45,45,43,43,37]; 
departureCar = [77,80,77,74,77,85,67,69,73,66,71,62,63,60,68,61,58,54,63,52,51,54,47,45,44,43]; 
